p cnf 40 170
-1 0
-2 0
-3 0
-4 0
-1 -2 3 4 0
1 2 -3 -4 0
-1 -3 2 4 0
1 3 -2 -4 0
-5 -6 7 8 0
5 6 -7 -8 0
-5 -7 6 8 0
5 7 -6 -8 0
-9 -10 11 12 0
9 10 -11 -12 0
-9 -11 10 12 0
9 11 -10 -12 0
-13 -14 15 16 0
13 14 -15 -16 0
-13 -15 14 16 0
13 15 -14 -16 0
-17 -18 19 20 0
17 18 -19 -20 0
-17 -19 18 20 0
17 19 -18 -20 0
-21 -22 23 24 0
21 22 -23 -24 0
-21 -23 22 24 0
21 23 -22 -24 0
-25 -26 27 28 0
25 26 -27 -28 0
-25 -27 26 28 0
25 27 -26 -28 0
-29 -30 31 32 0
29 30 -31 -32 0
-29 -31 30 32 0
29 31 -30 -32 0
-33 -34 35 36 0
33 34 -35 -36 0
-33 -35 34 36 0
33 35 -34 -36 0
-37 -38 39 40 0
37 38 -39 -40 0
-37 -39 38 40 0
37 39 -38 -40 0
-4 -8 0
4 8 0
-8 -12 0
8 12 0
-12 -16 0
12 16 0
-16 -20 0
16 20 0
-20 -24 0
20 24 0
-24 -28 0
24 28 0
-28 -32 0
28 32 0
-32 -36 0
32 36 0
-36 -40 0
36 40 0
-5 1 -6 2 0
-1 5 -6 2 0
-6 2 -7 3 0
-6 2 -3 7 0
-5 1 -2 6 0
-1 5 -2 6 0
-2 6 -7 3 0
-2 6 -3 7 0
-5 1 -7 3 0
-1 5 -7 3 0
-5 1 -3 7 0
-1 5 -3 7 0
-9 5 -10 6 0
-5 9 -10 6 0
-10 6 -11 7 0
-10 6 -7 11 0
-9 5 -6 10 0
-5 9 -6 10 0
-6 10 -11 7 0
-6 10 -7 11 0
-9 5 -11 7 0
-5 9 -11 7 0
-9 5 -7 11 0
-5 9 -7 11 0
-13 9 -14 10 0
-9 13 -14 10 0
-14 10 -15 11 0
-14 10 -11 15 0
-13 9 -10 14 0
-9 13 -10 14 0
-10 14 -15 11 0
-10 14 -11 15 0
-13 9 -15 11 0
-9 13 -15 11 0
-13 9 -11 15 0
-9 13 -11 15 0
-17 13 -18 14 0
-13 17 -18 14 0
-18 14 -19 15 0
-18 14 -15 19 0
-17 13 -14 18 0
-13 17 -14 18 0
-14 18 -19 15 0
-14 18 -15 19 0
-17 13 -19 15 0
-13 17 -19 15 0
-17 13 -15 19 0
-13 17 -15 19 0
-21 17 -22 18 0
-17 21 -22 18 0
-22 18 -23 19 0
-22 18 -19 23 0
-21 17 -18 22 0
-17 21 -18 22 0
-18 22 -23 19 0
-18 22 -19 23 0
-21 17 -23 19 0
-17 21 -23 19 0
-21 17 -19 23 0
-17 21 -19 23 0
-25 21 -26 22 0
-21 25 -26 22 0
-26 22 -27 23 0
-26 22 -23 27 0
-25 21 -22 26 0
-21 25 -22 26 0
-22 26 -27 23 0
-22 26 -23 27 0
-25 21 -27 23 0
-21 25 -27 23 0
-25 21 -23 27 0
-21 25 -23 27 0
-29 25 -30 26 0
-25 29 -30 26 0
-30 26 -31 27 0
-30 26 -27 31 0
-29 25 -26 30 0
-25 29 -26 30 0
-26 30 -31 27 0
-26 30 -27 31 0
-29 25 -31 27 0
-25 29 -31 27 0
-29 25 -27 31 0
-25 29 -27 31 0
-33 29 -34 30 0
-29 33 -34 30 0
-34 30 -35 31 0
-34 30 -31 35 0
-33 29 -30 34 0
-29 33 -30 34 0
-30 34 -35 31 0
-30 34 -31 35 0
-33 29 -35 31 0
-29 33 -35 31 0
-33 29 -31 35 0
-29 33 -31 35 0
-37 33 -38 34 0
-33 37 -38 34 0
-38 34 -39 35 0
-38 34 -35 39 0
-37 33 -34 38 0
-33 37 -34 38 0
-34 38 -39 35 0
-34 38 -35 39 0
-37 33 -39 35 0
-33 37 -39 35 0
-37 33 -35 39 0
-33 37 -35 39 0
